c SAT Generator for power-law distributed variable frequencies
c -g u -v 20 -c 91 -k 3 -p 2.750000 -b 3.200000 -f /home/schmidt/Devel/ni-kop-sat/data/ensemble/ruf20-91/ruf20-91-242 -u 1 -U 1 -s 2021026044
p cnf 20 91
2 9 -11 0
8 -17 20 0
5 11 19 0
3 6 15 0
-6 7 14 0
4 8 14 0
3 -9 -18 0
-4 9 13 0
8 -13 -20 0
9 -10 -11 0
3 -4 14 0
-11 -12 -20 0
-5 14 -18 0
13 -14 -19 0
-9 -12 14 0
6 -10 -11 0
6 -15 -18 0
1 11 14 0
5 -11 20 0
4 -5 19 0
6 -11 -12 0
-9 13 20 0
-6 -11 13 0
-4 -5 -18 0
-2 6 16 0
-1 -13 -16 0
-6 -17 -19 0
-3 -11 -14 0
2 11 18 0
-4 11 -14 0
5 -10 -11 0
5 6 -7 0
4 -12 -20 0
2 6 -11 0
5 -8 -13 0
2 11 13 0
-2 8 14 0
6 7 -12 0
-8 -12 -15 0
-2 -3 12 0
4 6 13 0
-1 8 18 0
-7 14 20 0
8 -17 -20 0
-9 12 -18 0
-2 3 17 0
5 -7 9 0
2 -11 -16 0
-11 -13 15 0
-3 -8 -19 0
14 16 -19 0
9 16 -18 0
7 -10 18 0
6 -13 -20 0
7 9 -11 0
3 -4 20 0
1 5 6 0
10 12 -14 0
7 -9 10 0
11 12 14 0
-12 14 -19 0
10 11 -18 0
-1 6 8 0
7 8 17 0
5 11 17 0
1 -12 18 0
-5 6 -12 0
-8 -14 -15 0
1 -10 -17 0
-5 -13 19 0
1 4 -16 0
3 -4 -15 0
9 18 -20 0
10 -13 20 0
2 -15 16 0
4 -8 -17 0
-8 16 17 0
2 5 12 0
3 -9 -14 0
3 11 20 0
7 -10 -12 0
-1 4 14 0
2 9 -16 0
3 18 -20 0
-6 -11 -15 0
-4 -7 -8 0
7 -10 11 0
10 -12 -18 0
-1 8 -13 0
12 16 19 0
-1 10 15 0
